Minimize
	value: tt

Subject to
tt + 1000 s_1_1 > 0.0
tt - t_1_1 - 1007.447958 s_1_1  + 3.723979 s_1_8  + 3.723979 s_1_7  > -975.327400
tt + 1000 s_2_1 > 0.0
tt - t_2_1 - 1006.791846 s_2_1  + 3.395923 s_2_8  + 3.395923 s_2_7  > -951.486944
tt + 1000 s_1_2 > 0.0
tt - t_1_2 - 1003.723979 s_1_2  + 3.723979 s_1_7  > -975.467100
tt + 1000 s_2_2 > 0.0
tt - t_2_2 - 1003.395923 s_2_2  + 3.395923 s_2_7  > -951.623500
tt + 1000 s_1_3 > 0.0
tt - t_1_3 - 1007.447958 s_1_3  + 3.723979 s_1_8  + 3.723979 s_1_7  > -994.475300
tt + 1000 s_2_3 > 0.0
tt - t_2_3 - 1006.791846 s_2_3  + 3.395923 s_2_8  + 3.395923 s_2_7  > -993.205175
tt + 1000 s_1_4 > 0.0
tt - t_1_4 - 1003.723979 s_1_4  + 3.723979 s_1_7  > -990.217100
tt + 1000 s_2_4 > 0.0
tt - t_2_4 - 1003.395923 s_2_4  + 3.395923 s_2_7  > -989.762950
tt + 1000 s_1_5 > 0.0
tt - t_1_5 - 1003.723979 s_1_5  + 3.723979 s_1_8  > -988.976600
tt + 1000 s_2_5 > 0.0
tt - t_2_5 - 1003.395923 s_2_5  + 3.395923 s_2_8  > -976.244356
tt + 1000 s_1_6 > 0.0
tt - t_1_6 - 1022.343875 s_1_6  + 3.723979 s_1_2  + 3.723979 s_1_5  + 3.723979 s_1_3  + 3.723979 s_1_7  + 3.723979 s_1_1  + 3.723979 s_1_4  > -996.644800
tt + 1000 s_2_6 > 0.0
tt - t_2_6 - 1020.375537 s_2_6  + 3.395923 s_2_2  + 3.395923 s_2_5  + 3.395923 s_2_3  + 3.395923 s_2_7  + 3.395923 s_2_1  + 3.395923 s_2_4  > -994.618700
tt + 1000 s_1_7 > 0.0
tt - t_1_7 - 1000.000000 s_1_7  > -956.828800
tt + 1000 s_2_7 > 0.0
tt - t_2_7 - 1000.000000 s_2_7  > -951.592900
tt + 1000 s_1_8 > 0.0
tt - t_1_8 - 1000.000000 s_1_8  > -959.318700
tt + 1000 s_2_8 > 0.0
tt - t_2_8 - 1000.000000 s_2_8  > -952.845400
s_1_1 + s_2_1 = 1
s_1_2 + s_2_2 = 1
s_1_3 + s_2_3 = 1
s_1_4 + s_2_4 = 1
s_1_5 + s_2_5 = 1
s_1_6 + s_2_6 = 1
s_1_7 + s_2_7 = 1
s_1_8 + s_2_8 = 1
s_1_1 + s_1_2 + 1000 r_1_1_2 >= 2
- s_1_1 - s_1_2 - 1000 r_1_1_2 >= -1001
t_1_1 - t_1_2 - 1000.000000 u_1_1_2 - 3.723979 s_1_2  + 3.723979 s_1_7  + 2000.000000 r_1_1_2 > -975.467100
s_2_1 + s_2_2 + 1000 r_2_1_2 >= 2
- s_2_1 - s_2_2 - 1000 r_2_1_2 >= -1001
t_2_1 - t_2_2 - 1000.000000 u_2_1_2 - 3.395923 s_2_2  + 3.395923 s_2_7  + 2000.000000 r_2_1_2 > -951.623500
s_1_1 + s_1_3 + 1000 r_1_1_3 >= 2
- s_1_1 - s_1_3 - 1000 r_1_1_3 >= -1001
t_1_1 - t_1_3 - 1000.000000 u_1_1_3 - 7.447958 s_1_3  + 3.723979 s_1_8  + 3.723979 s_1_7  + 2000.000000 r_1_1_3 > -994.475300
s_2_1 + s_2_3 + 1000 r_2_1_3 >= 2
- s_2_1 - s_2_3 - 1000 r_2_1_3 >= -1001
t_2_1 - t_2_3 - 1000.000000 u_2_1_3 - 6.791846 s_2_3  + 3.395923 s_2_8  + 3.395923 s_2_7  + 2000.000000 r_2_1_3 > -993.205175
s_1_1 + s_1_4 + 1000 r_1_1_4 >= 2
- s_1_1 - s_1_4 - 1000 r_1_1_4 >= -1001
t_1_1 - t_1_4 - 1000.000000 u_1_1_4 - 3.723979 s_1_4  + 3.723979 s_1_7  + 2000.000000 r_1_1_4 > -990.217100
s_2_1 + s_2_4 + 1000 r_2_1_4 >= 2
- s_2_1 - s_2_4 - 1000 r_2_1_4 >= -1001
t_2_1 - t_2_4 - 1000.000000 u_2_1_4 - 3.395923 s_2_4  + 3.395923 s_2_7  + 2000.000000 r_2_1_4 > -989.762950
s_1_1 + s_1_5 + 1000 r_1_1_5 >= 2
- s_1_1 - s_1_5 - 1000 r_1_1_5 >= -1001
t_1_1 - t_1_5 - 1000.000000 u_1_1_5 - 3.723979 s_1_5  + 3.723979 s_1_8  + 2000.000000 r_1_1_5 > -988.976600
s_2_1 + s_2_5 + 1000 r_2_1_5 >= 2
- s_2_1 - s_2_5 - 1000 r_2_1_5 >= -1001
t_2_1 - t_2_5 - 1000.000000 u_2_1_5 - 3.395923 s_2_5  + 3.395923 s_2_8  + 2000.000000 r_2_1_5 > -976.244356
t_1_6 - t_1_1 - 1007.447958 s_1_1  + 3.723979 s_1_8  + 3.723979 s_1_7  > -975.327400
t_1_6 - t_2_1 - 1006.791846 s_2_1  + 3.395923 s_2_8  + 3.395923 s_2_7  > -951.486944
t_2_6 - t_1_1 - 1007.447958 s_1_1  + 3.723979 s_1_8  + 3.723979 s_1_7  > -975.327400
t_2_6 - t_2_1 - 1006.791846 s_2_1  + 3.395923 s_2_8  + 3.395923 s_2_7  > -951.486944
t_1_1 - t_1_7 - 1000.000000 s_1_7  > -956.828800
t_1_1 - t_2_7 - 1000.000000 s_2_7  > -951.592900
t_2_1 - t_1_7 - 1000.000000 s_1_7  > -956.828800
t_2_1 - t_2_7 - 1000.000000 s_2_7  > -951.592900
t_1_1 - t_1_8 - 1000.000000 s_1_8  > -959.318700
t_1_1 - t_2_8 - 1000.000000 s_2_8  > -952.845400
t_2_1 - t_1_8 - 1000.000000 s_1_8  > -959.318700
t_2_1 - t_2_8 - 1000.000000 s_2_8  > -952.845400
s_1_2 + s_1_1 + 1000 r_1_1_2 >= 2
- s_1_2 - s_1_1 - 1000 r_1_1_2 >= -1001
t_1_2 - t_1_1 + 1000.000000 u_1_1_2 - 7.447958 s_1_1  + 3.723979 s_1_8  + 3.723979 s_1_7  + 2000.000000 r_1_1_2 > 24.672600
s_2_2 + s_2_1 + 1000 r_2_1_2 >= 2
- s_2_2 - s_2_1 - 1000 r_2_1_2 >= -1001
t_2_2 - t_2_1 + 1000.000000 u_2_1_2 - 6.791846 s_2_1  + 3.395923 s_2_8  + 3.395923 s_2_7  + 2000.000000 r_2_1_2 > 48.513056
s_1_2 + s_1_3 + 1000 r_1_2_3 >= 2
- s_1_2 - s_1_3 - 1000 r_1_2_3 >= -1001
t_1_2 - t_1_3 - 1000.000000 u_1_2_3 - 7.447958 s_1_3  + 3.723979 s_1_8  + 3.723979 s_1_7  + 2000.000000 r_1_2_3 > -994.475300
s_2_2 + s_2_3 + 1000 r_2_2_3 >= 2
- s_2_2 - s_2_3 - 1000 r_2_2_3 >= -1001
t_2_2 - t_2_3 - 1000.000000 u_2_2_3 - 6.791846 s_2_3  + 3.395923 s_2_8  + 3.395923 s_2_7  + 2000.000000 r_2_2_3 > -993.205175
s_1_2 + s_1_4 + 1000 r_1_2_4 >= 2
- s_1_2 - s_1_4 - 1000 r_1_2_4 >= -1001
t_1_2 - t_1_4 - 1000.000000 u_1_2_4 - 3.723979 s_1_4  + 3.723979 s_1_7  + 2000.000000 r_1_2_4 > -990.217100
s_2_2 + s_2_4 + 1000 r_2_2_4 >= 2
- s_2_2 - s_2_4 - 1000 r_2_2_4 >= -1001
t_2_2 - t_2_4 - 1000.000000 u_2_2_4 - 3.395923 s_2_4  + 3.395923 s_2_7  + 2000.000000 r_2_2_4 > -989.762950
s_1_2 + s_1_5 + 1000 r_1_2_5 >= 2
- s_1_2 - s_1_5 - 1000 r_1_2_5 >= -1001
t_1_2 - t_1_5 - 1000.000000 u_1_2_5 - 3.723979 s_1_5  + 3.723979 s_1_8  + 2000.000000 r_1_2_5 > -988.976600
s_2_2 + s_2_5 + 1000 r_2_2_5 >= 2
- s_2_2 - s_2_5 - 1000 r_2_2_5 >= -1001
t_2_2 - t_2_5 - 1000.000000 u_2_2_5 - 3.395923 s_2_5  + 3.395923 s_2_8  + 2000.000000 r_2_2_5 > -976.244356
t_1_6 - t_1_2 - 1003.723979 s_1_2  + 3.723979 s_1_7  > -975.467100
t_1_6 - t_2_2 - 1003.395923 s_2_2  + 3.395923 s_2_7  > -951.623500
t_2_6 - t_1_2 - 1003.723979 s_1_2  + 3.723979 s_1_7  > -975.467100
t_2_6 - t_2_2 - 1003.395923 s_2_2  + 3.395923 s_2_7  > -951.623500
t_1_2 - t_1_7 - 1000.000000 s_1_7  > -956.828800
t_1_2 - t_2_7 - 1000.000000 s_2_7  > -951.592900
t_2_2 - t_1_7 - 1000.000000 s_1_7  > -956.828800
t_2_2 - t_2_7 - 1000.000000 s_2_7  > -951.592900
s_1_2 + s_1_8 + 1000 r_1_2_8 >= 2
- s_1_2 - s_1_8 - 1000 r_1_2_8 >= -1001
t_1_2 - t_1_8 - 1000.000000 u_1_2_8 - 0.000000 s_1_8  + 2000.000000 r_1_2_8 > -959.318700
s_2_2 + s_2_8 + 1000 r_2_2_8 >= 2
- s_2_2 - s_2_8 - 1000 r_2_2_8 >= -1001
t_2_2 - t_2_8 - 1000.000000 u_2_2_8 - 0.000000 s_2_8  + 2000.000000 r_2_2_8 > -952.845400
s_1_3 + s_1_1 + 1000 r_1_1_3 >= 2
- s_1_3 - s_1_1 - 1000 r_1_1_3 >= -1001
t_1_3 - t_1_1 + 1000.000000 u_1_1_3 - 7.447958 s_1_1  + 3.723979 s_1_8  + 3.723979 s_1_7  + 2000.000000 r_1_1_3 > 24.672600
s_2_3 + s_2_1 + 1000 r_2_1_3 >= 2
- s_2_3 - s_2_1 - 1000 r_2_1_3 >= -1001
t_2_3 - t_2_1 + 1000.000000 u_2_1_3 - 6.791846 s_2_1  + 3.395923 s_2_8  + 3.395923 s_2_7  + 2000.000000 r_2_1_3 > 48.513056
s_1_3 + s_1_2 + 1000 r_1_2_3 >= 2
- s_1_3 - s_1_2 - 1000 r_1_2_3 >= -1001
t_1_3 - t_1_2 + 1000.000000 u_1_2_3 - 3.723979 s_1_2  + 3.723979 s_1_7  + 2000.000000 r_1_2_3 > 24.532900
s_2_3 + s_2_2 + 1000 r_2_2_3 >= 2
- s_2_3 - s_2_2 - 1000 r_2_2_3 >= -1001
t_2_3 - t_2_2 + 1000.000000 u_2_2_3 - 3.395923 s_2_2  + 3.395923 s_2_7  + 2000.000000 r_2_2_3 > 48.376500
s_1_3 + s_1_4 + 1000 r_1_3_4 >= 2
- s_1_3 - s_1_4 - 1000 r_1_3_4 >= -1001
t_1_3 - t_1_4 - 1000.000000 u_1_3_4 - 3.723979 s_1_4  + 3.723979 s_1_7  + 2000.000000 r_1_3_4 > -990.217100
s_2_3 + s_2_4 + 1000 r_2_3_4 >= 2
- s_2_3 - s_2_4 - 1000 r_2_3_4 >= -1001
t_2_3 - t_2_4 - 1000.000000 u_2_3_4 - 3.395923 s_2_4  + 3.395923 s_2_7  + 2000.000000 r_2_3_4 > -989.762950
s_1_3 + s_1_5 + 1000 r_1_3_5 >= 2
- s_1_3 - s_1_5 - 1000 r_1_3_5 >= -1001
t_1_3 - t_1_5 - 1000.000000 u_1_3_5 - 3.723979 s_1_5  + 3.723979 s_1_8  + 2000.000000 r_1_3_5 > -988.976600
s_2_3 + s_2_5 + 1000 r_2_3_5 >= 2
- s_2_3 - s_2_5 - 1000 r_2_3_5 >= -1001
t_2_3 - t_2_5 - 1000.000000 u_2_3_5 - 3.395923 s_2_5  + 3.395923 s_2_8  + 2000.000000 r_2_3_5 > -976.244356
t_1_6 - t_1_3 - 1007.447958 s_1_3  + 3.723979 s_1_8  + 3.723979 s_1_7  > -994.475300
t_1_6 - t_2_3 - 1006.791846 s_2_3  + 3.395923 s_2_8  + 3.395923 s_2_7  > -993.205175
t_2_6 - t_1_3 - 1007.447958 s_1_3  + 3.723979 s_1_8  + 3.723979 s_1_7  > -994.475300
t_2_6 - t_2_3 - 1006.791846 s_2_3  + 3.395923 s_2_8  + 3.395923 s_2_7  > -993.205175
t_1_3 - t_1_7 - 1000.000000 s_1_7  > -956.828800
t_1_3 - t_2_7 - 1000.000000 s_2_7  > -951.592900
t_2_3 - t_1_7 - 1000.000000 s_1_7  > -956.828800
t_2_3 - t_2_7 - 1000.000000 s_2_7  > -951.592900
t_1_3 - t_1_8 - 1000.000000 s_1_8  > -959.318700
t_1_3 - t_2_8 - 1000.000000 s_2_8  > -952.845400
t_2_3 - t_1_8 - 1000.000000 s_1_8  > -959.318700
t_2_3 - t_2_8 - 1000.000000 s_2_8  > -952.845400
s_1_4 + s_1_1 + 1000 r_1_1_4 >= 2
- s_1_4 - s_1_1 - 1000 r_1_1_4 >= -1001
t_1_4 - t_1_1 + 1000.000000 u_1_1_4 - 7.447958 s_1_1  + 3.723979 s_1_8  + 3.723979 s_1_7  + 2000.000000 r_1_1_4 > 24.672600
s_2_4 + s_2_1 + 1000 r_2_1_4 >= 2
- s_2_4 - s_2_1 - 1000 r_2_1_4 >= -1001
t_2_4 - t_2_1 + 1000.000000 u_2_1_4 - 6.791846 s_2_1  + 3.395923 s_2_8  + 3.395923 s_2_7  + 2000.000000 r_2_1_4 > 48.513056
s_1_4 + s_1_2 + 1000 r_1_2_4 >= 2
- s_1_4 - s_1_2 - 1000 r_1_2_4 >= -1001
t_1_4 - t_1_2 + 1000.000000 u_1_2_4 - 3.723979 s_1_2  + 3.723979 s_1_7  + 2000.000000 r_1_2_4 > 24.532900
s_2_4 + s_2_2 + 1000 r_2_2_4 >= 2
- s_2_4 - s_2_2 - 1000 r_2_2_4 >= -1001
t_2_4 - t_2_2 + 1000.000000 u_2_2_4 - 3.395923 s_2_2  + 3.395923 s_2_7  + 2000.000000 r_2_2_4 > 48.376500
s_1_4 + s_1_3 + 1000 r_1_3_4 >= 2
- s_1_4 - s_1_3 - 1000 r_1_3_4 >= -1001
t_1_4 - t_1_3 + 1000.000000 u_1_3_4 - 7.447958 s_1_3  + 3.723979 s_1_8  + 3.723979 s_1_7  + 2000.000000 r_1_3_4 > 5.524700
s_2_4 + s_2_3 + 1000 r_2_3_4 >= 2
- s_2_4 - s_2_3 - 1000 r_2_3_4 >= -1001
t_2_4 - t_2_3 + 1000.000000 u_2_3_4 - 6.791846 s_2_3  + 3.395923 s_2_8  + 3.395923 s_2_7  + 2000.000000 r_2_3_4 > 6.794825
s_1_4 + s_1_5 + 1000 r_1_4_5 >= 2
- s_1_4 - s_1_5 - 1000 r_1_4_5 >= -1001
t_1_4 - t_1_5 - 1000.000000 u_1_4_5 - 3.723979 s_1_5  + 3.723979 s_1_8  + 2000.000000 r_1_4_5 > -988.976600
s_2_4 + s_2_5 + 1000 r_2_4_5 >= 2
- s_2_4 - s_2_5 - 1000 r_2_4_5 >= -1001
t_2_4 - t_2_5 - 1000.000000 u_2_4_5 - 3.395923 s_2_5  + 3.395923 s_2_8  + 2000.000000 r_2_4_5 > -976.244356
t_1_6 - t_1_4 - 1003.723979 s_1_4  + 3.723979 s_1_7  > -990.217100
t_1_6 - t_2_4 - 1003.395923 s_2_4  + 3.395923 s_2_7  > -989.762950
t_2_6 - t_1_4 - 1003.723979 s_1_4  + 3.723979 s_1_7  > -990.217100
t_2_6 - t_2_4 - 1003.395923 s_2_4  + 3.395923 s_2_7  > -989.762950
t_1_4 - t_1_7 - 1000.000000 s_1_7  > -956.828800
t_1_4 - t_2_7 - 1000.000000 s_2_7  > -951.592900
t_2_4 - t_1_7 - 1000.000000 s_1_7  > -956.828800
t_2_4 - t_2_7 - 1000.000000 s_2_7  > -951.592900
s_1_4 + s_1_8 + 1000 r_1_4_8 >= 2
- s_1_4 - s_1_8 - 1000 r_1_4_8 >= -1001
t_1_4 - t_1_8 - 1000.000000 u_1_4_8 - 0.000000 s_1_8  + 2000.000000 r_1_4_8 > -959.318700
s_2_4 + s_2_8 + 1000 r_2_4_8 >= 2
- s_2_4 - s_2_8 - 1000 r_2_4_8 >= -1001
t_2_4 - t_2_8 - 1000.000000 u_2_4_8 - 0.000000 s_2_8  + 2000.000000 r_2_4_8 > -952.845400
s_1_5 + s_1_1 + 1000 r_1_1_5 >= 2
- s_1_5 - s_1_1 - 1000 r_1_1_5 >= -1001
t_1_5 - t_1_1 + 1000.000000 u_1_1_5 - 7.447958 s_1_1  + 3.723979 s_1_8  + 3.723979 s_1_7  + 2000.000000 r_1_1_5 > 24.672600
s_2_5 + s_2_1 + 1000 r_2_1_5 >= 2
- s_2_5 - s_2_1 - 1000 r_2_1_5 >= -1001
t_2_5 - t_2_1 + 1000.000000 u_2_1_5 - 6.791846 s_2_1  + 3.395923 s_2_8  + 3.395923 s_2_7  + 2000.000000 r_2_1_5 > 48.513056
s_1_5 + s_1_2 + 1000 r_1_2_5 >= 2
- s_1_5 - s_1_2 - 1000 r_1_2_5 >= -1001
t_1_5 - t_1_2 + 1000.000000 u_1_2_5 - 3.723979 s_1_2  + 3.723979 s_1_7  + 2000.000000 r_1_2_5 > 24.532900
s_2_5 + s_2_2 + 1000 r_2_2_5 >= 2
- s_2_5 - s_2_2 - 1000 r_2_2_5 >= -1001
t_2_5 - t_2_2 + 1000.000000 u_2_2_5 - 3.395923 s_2_2  + 3.395923 s_2_7  + 2000.000000 r_2_2_5 > 48.376500
s_1_5 + s_1_3 + 1000 r_1_3_5 >= 2
- s_1_5 - s_1_3 - 1000 r_1_3_5 >= -1001
t_1_5 - t_1_3 + 1000.000000 u_1_3_5 - 7.447958 s_1_3  + 3.723979 s_1_8  + 3.723979 s_1_7  + 2000.000000 r_1_3_5 > 5.524700
s_2_5 + s_2_3 + 1000 r_2_3_5 >= 2
- s_2_5 - s_2_3 - 1000 r_2_3_5 >= -1001
t_2_5 - t_2_3 + 1000.000000 u_2_3_5 - 6.791846 s_2_3  + 3.395923 s_2_8  + 3.395923 s_2_7  + 2000.000000 r_2_3_5 > 6.794825
s_1_5 + s_1_4 + 1000 r_1_4_5 >= 2
- s_1_5 - s_1_4 - 1000 r_1_4_5 >= -1001
t_1_5 - t_1_4 + 1000.000000 u_1_4_5 - 3.723979 s_1_4  + 3.723979 s_1_7  + 2000.000000 r_1_4_5 > 9.782900
s_2_5 + s_2_4 + 1000 r_2_4_5 >= 2
- s_2_5 - s_2_4 - 1000 r_2_4_5 >= -1001
t_2_5 - t_2_4 + 1000.000000 u_2_4_5 - 3.395923 s_2_4  + 3.395923 s_2_7  + 2000.000000 r_2_4_5 > 10.237050
t_1_6 - t_1_5 - 1003.723979 s_1_5  + 3.723979 s_1_8  > -988.976600
t_1_6 - t_2_5 - 1003.395923 s_2_5  + 3.395923 s_2_8  > -976.244356
t_2_6 - t_1_5 - 1003.723979 s_1_5  + 3.723979 s_1_8  > -988.976600
t_2_6 - t_2_5 - 1003.395923 s_2_5  + 3.395923 s_2_8  > -976.244356
s_1_5 + s_1_7 + 1000 r_1_5_7 >= 2
- s_1_5 - s_1_7 - 1000 r_1_5_7 >= -1001
t_1_5 - t_1_7 - 1000.000000 u_1_5_7 - 0.000000 s_1_7  + 2000.000000 r_1_5_7 > -956.828800
s_2_5 + s_2_7 + 1000 r_2_5_7 >= 2
- s_2_5 - s_2_7 - 1000 r_2_5_7 >= -1001
t_2_5 - t_2_7 - 1000.000000 u_2_5_7 - 0.000000 s_2_7  + 2000.000000 r_2_5_7 > -951.592900
t_1_5 - t_1_8 - 1000.000000 s_1_8  > -959.318700
t_1_5 - t_2_8 - 1000.000000 s_2_8  > -952.845400
t_2_5 - t_1_8 - 1000.000000 s_1_8  > -959.318700
t_2_5 - t_2_8 - 1000.000000 s_2_8  > -952.845400
t_1_6 - t_1_7 - 1000.000000 s_1_7  > -956.828800
t_1_6 - t_2_7 - 1000.000000 s_2_7  > -951.592900
t_2_6 - t_1_7 - 1000.000000 s_1_7  > -956.828800
t_2_6 - t_2_7 - 1000.000000 s_2_7  > -951.592900
s_1_7 + s_1_5 + 1000 r_1_5_7 >= 2
- s_1_7 - s_1_5 - 1000 r_1_5_7 >= -1001
t_1_7 - t_1_5 + 1000.000000 u_1_5_7 - 3.723979 s_1_5  + 3.723979 s_1_8  + 2000.000000 r_1_5_7 > 11.023400
s_2_7 + s_2_5 + 1000 r_2_5_7 >= 2
- s_2_7 - s_2_5 - 1000 r_2_5_7 >= -1001
t_2_7 - t_2_5 + 1000.000000 u_2_5_7 - 3.395923 s_2_5  + 3.395923 s_2_8  + 2000.000000 r_2_5_7 > 23.755644
s_1_7 + s_1_8 + 1000 r_1_7_8 >= 2
- s_1_7 - s_1_8 - 1000 r_1_7_8 >= -1001
t_1_7 - t_1_8 - 1000.000000 u_1_7_8 - 0.000000 s_1_8  + 2000.000000 r_1_7_8 > -959.318700
s_2_7 + s_2_8 + 1000 r_2_7_8 >= 2
- s_2_7 - s_2_8 - 1000 r_2_7_8 >= -1001
t_2_7 - t_2_8 - 1000.000000 u_2_7_8 - 0.000000 s_2_8  + 2000.000000 r_2_7_8 > -952.845400
s_1_8 + s_1_2 + 1000 r_1_2_8 >= 2
- s_1_8 - s_1_2 - 1000 r_1_2_8 >= -1001
t_1_8 - t_1_2 + 1000.000000 u_1_2_8 - 3.723979 s_1_2  + 3.723979 s_1_7  + 2000.000000 r_1_2_8 > 24.532900
s_2_8 + s_2_2 + 1000 r_2_2_8 >= 2
- s_2_8 - s_2_2 - 1000 r_2_2_8 >= -1001
t_2_8 - t_2_2 + 1000.000000 u_2_2_8 - 3.395923 s_2_2  + 3.395923 s_2_7  + 2000.000000 r_2_2_8 > 48.376500
s_1_8 + s_1_4 + 1000 r_1_4_8 >= 2
- s_1_8 - s_1_4 - 1000 r_1_4_8 >= -1001
t_1_8 - t_1_4 + 1000.000000 u_1_4_8 - 3.723979 s_1_4  + 3.723979 s_1_7  + 2000.000000 r_1_4_8 > 9.782900
s_2_8 + s_2_4 + 1000 r_2_4_8 >= 2
- s_2_8 - s_2_4 - 1000 r_2_4_8 >= -1001
t_2_8 - t_2_4 + 1000.000000 u_2_4_8 - 3.395923 s_2_4  + 3.395923 s_2_7  + 2000.000000 r_2_4_8 > 10.237050
s_1_8 + s_1_7 + 1000 r_1_7_8 >= 2
- s_1_8 - s_1_7 - 1000 r_1_7_8 >= -1001
t_1_8 - t_1_7 + 1000.000000 u_1_7_8 - 0.000000 s_1_7  + 2000.000000 r_1_7_8 > 43.171200
s_2_8 + s_2_7 + 1000 r_2_7_8 >= 2
- s_2_8 - s_2_7 - 1000 r_2_7_8 >= -1001
t_2_8 - t_2_7 + 1000.000000 u_2_7_8 - 0.000000 s_2_7  + 2000.000000 r_2_7_8 > 48.407100
Binary
s_1_1
s_2_1
s_1_2
s_2_2
s_1_3
s_2_3
s_1_4
s_2_4
s_1_5
s_2_5
s_1_6
s_2_6
s_1_7
s_2_7
s_1_8
s_2_8
u_1_1_2
r_1_1_2
u_2_1_2
r_2_1_2
u_1_1_3
r_1_1_3
u_2_1_3
r_2_1_3
u_1_1_4
r_1_1_4
u_2_1_4
r_2_1_4
u_1_1_5
r_1_1_5
u_2_1_5
r_2_1_5
u_1_2_3
r_1_2_3
u_2_2_3
r_2_2_3
u_1_2_4
r_1_2_4
u_2_2_4
r_2_2_4
u_1_2_5
r_1_2_5
u_2_2_5
r_2_2_5
u_1_2_8
r_1_2_8
u_2_2_8
r_2_2_8
u_1_3_4
r_1_3_4
u_2_3_4
r_2_3_4
u_1_3_5
r_1_3_5
u_2_3_5
r_2_3_5
u_1_4_5
r_1_4_5
u_2_4_5
r_2_4_5
u_1_4_8
r_1_4_8
u_2_4_8
r_2_4_8
u_1_5_7
r_1_5_7
u_2_5_7
r_2_5_7
u_1_7_8
r_1_7_8
u_2_7_8
r_2_7_8

End
